p cnf 2279
-13 -194
-14 -70
-15 -73
-16 -76
-17 -79
-18 -82
-19 -85
-20 -226
-21 -232
-22 -238
-23 -244
-24 -250
-25 -256
-26 -282
-27 -301
-28 -319
-29 -329
-30 -348
-31 -367
-32 -385
-33 -395
-34 -414
-35 -433
-36 -451
-37 -461
-38 -480
-39 -499
-40 -517
-41 -527
-42 -546
-43 -565
-44 -583
-45 -593
-46 -612
-47 -631
-48 -649
-49 -659
-50 -711
-51 -717
-52 -723
-53 1
-53 -20
-1 20 53
-54 2
-54 -21
-2 21 54
-55 3
-55 -22
-3 22 55
-56 4
-56 -23
-4 23 56
-57 5
-57 -24
-5 24 57
-58 6
-58 -25
-6 25 58
-59 -53
-59 54
53 -54 59
-60 -53
-60 -59
53 59 60
-61 55
-61 60
-55 -60 61
-62 60
-62 -61
-60 61 62
-63 56
-63 62
-56 -62 63
-64 62
-64 -63
-62 63 64
-65 57
-65 64
-57 -64 65
-66 64
-66 -65
-64 65 66
-67 58
-67 66
-58 -66 67
-68 -13
-68 53
13 -53 68
-69 13
-69 14
-13 -14 69
-70 -68
-70 -69
68 69 70
-71 -13
-71 59
13 -59 71
-72 13
-72 15
-13 -15 72
-73 -71
-73 -72
71 72 73
-74 -13
-74 61
13 -61 74
-75 13
-75 16
-13 -16 75
-76 -74
-76 -75
74 75 76
-77 -13
-77 63
13 -63 77
-78 13
-78 17
-13 -17 78
-79 -77
-79 -78
77 78 79
-80 -13
-80 65
13 -65 80
-81 13
-81 18
-13 -18 81
-82 -80
-82 -81
80 81 82
-83 -13
-83 67
13 -67 83
-84 13
-84 19
-13 -19 84
-85 -83
-85 -84
83 84 85
-86 1
-86 -70
-1 70 86
-87 2
-87 -73
-2 73 87
-88 3
-88 -76
-3 76 88
-89 4
-89 -79
-4 79 89
-90 5
-90 -82
-5 82 90
-91 6
-91 -85
-6 85 91
-92 26
-92 -27
-26 27 92
-93 -28
-93 -29
28 29 93
-94 92
-94 93
-92 -93 94
-95 -26
-95 -27
26 27 95
-96 -28
-96 29
28 -29 96
-97 95
-97 96
-95 -96 97
-98 -94
-98 -97
94 97 98
-99 86
-99 -98
-86 98 99
-100 30
-100 -31
-30 31 100
-101 -32
-101 -33
32 33 101
-102 100
-102 101
-100 -101 102
-103 -30
-103 -31
30 31 103
-104 -32
-104 33
32 -33 104
-105 103
-105 104
-103 -104 105
-106 -102
-106 -105
102 105 106
-107 87
-107 -106
-87 106 107
-108 34
-108 -35
-34 35 108
-109 -36
-109 -37
36 37 109
-110 108
-110 109
-108 -109 110
-111 -34
-111 -35
34 35 111
-112 -36
-112 37
36 -37 112
-113 111
-113 112
-111 -112 113
-114 -110
-114 -113
110 113 114
-115 88
-115 -114
-88 114 115
-116 38
-116 -39
-38 39 116
-117 -40
-117 -41
40 41 117
-118 116
-118 117
-116 -117 118
-119 -38
-119 -39
38 39 119
-120 -40
-120 41
40 -41 120
-121 119
-121 120
-119 -120 121
-122 -118
-122 -121
118 121 122
-123 89
-123 -122
-89 122 123
-124 42
-124 -43
-42 43 124
-125 -44
-125 -45
44 45 125
-126 124
-126 125
-124 -125 126
-127 -42
-127 -43
42 43 127
-128 -44
-128 45
44 -45 128
-129 127
-129 128
-127 -128 129
-130 -126
-130 -129
126 129 130
-131 90
-131 -130
-90 130 131
-132 46
-132 -47
-46 47 132
-133 -48
-133 -49
48 49 133
-134 132
-134 133
-132 -133 134
-135 -46
-135 -47
46 47 135
-136 -48
-136 49
48 -49 136
-137 135
-137 136
-135 -136 137
-138 -134
-138 -137
134 137 138
-139 91
-139 -138
-91 138 139
-140 -99
-140 -107
99 107 140
-141 -115
-141 -123
115 123 141
-142 -131
-142 -139
131 139 142
-143 140
-143 141
-140 -141 143
-144 142
-144 143
-142 -143 144
-145 -26
-145 27
26 -27 145
-146 28
-146 -29
-28 29 146
-147 145
-147 146
-145 -146 147
-148 28
-148 29
-28 -29 148
-149 92
-149 148
-92 -148 149
-150 -147
-150 -149
147 149 150
-151 86
-151 -150
-86 150 151
-152 -30
-152 31
30 -31 152
-153 32
-153 -33
-32 33 153
-154 152
-154 153
-152 -153 154
-155 32
-155 33
-32 -33 155
-156 100
-156 155
-100 -155 156
-157 -154
-157 -156
154 156 157
-158 87
-158 -157
-87 157 158
-159 -34
-159 35
34 -35 159
-160 36
-160 -37
-36 37 160
-161 159
-161 160
-159 -160 161
-162 36
-162 37
-36 -37 162
-163 108
-163 162
-108 -162 163
-164 -161
-164 -163
161 163 164
-165 88
-165 -164
-88 164 165
-166 -38
-166 39
38 -39 166
-167 40
-167 -41
-40 41 167
-168 166
-168 167
-166 -167 168
-169 40
-169 41
-40 -41 169
-170 116
-170 169
-116 -169 170
-171 -168
-171 -170
168 170 171
-172 89
-172 -171
-89 171 172
-173 -42
-173 43
42 -43 173
-174 44
-174 -45
-44 45 174
-175 173
-175 174
-173 -174 175
-176 44
-176 45
-44 -45 176
-177 124
-177 176
-124 -176 177
-178 -175
-178 -177
175 177 178
-179 90
-179 -178
-90 178 179
-180 -46
-180 47
46 -47 180
-181 48
-181 -49
-48 49 181
-182 180
-182 181
-180 -181 182
-183 48
-183 49
-48 -49 183
-184 132
-184 183
-132 -183 184
-185 -182
-185 -184
182 184 185
-186 91
-186 -185
-91 185 186
-187 -151
-187 -158
151 158 187
-188 -165
-188 -172
165 172 188
-189 -179
-189 -186
179 186 189
-190 187
-190 188
-187 -188 190
-191 189
-191 190
-189 -190 191
-192 13
-192 191
-13 -191 192
-193 144
-193 192
-144 -192 193
-194 144
-194 -193
-144 193 194
-195 -20
-195 21
20 -21 195
-196 -20
-196 -195
20 195 196
-197 22
-197 196
-22 -196 197
-198 196
-198 -197
-196 197 198
-199 23
-199 198
-23 -198 199
-200 198
-200 -199
-198 199 200
-201 24
-201 200
-24 -200 201
-202 200
-202 -201
-200 201 202
-203 25
-203 202
-25 -202 203
-204 95
-204 148
-95 -148 204
-205 86
-205 204
-86 -204 205
-206 103
-206 155
-103 -155 206
-207 87
-207 206
-87 -206 207
-208 111
-208 162
-111 -162 208
-209 88
-209 208
-88 -208 209
-210 119
-210 169
-119 -169 210
-211 89
-211 210
-89 -210 211
-212 127
-212 176
-127 -176 212
-213 90
-213 212
-90 -212 213
-214 135
-214 183
-135 -183 214
-215 91
-215 214
-91 -214 215
-216 -205
-216 -207
205 207 216
-217 -209
-217 -211
209 211 217
-218 -213
-218 -215
213 215 218
-219 216
-219 217
-216 -217 219
-220 218
-220 219
-218 -219 220
-221 92
-221 146
-92 -146 221
-222 86
-222 221
-86 -221 222
-223 20
-223 -220
-20 220 223
-224 20
-224 -223
-20 223 224
-225 -222
-225 224
222 -224 225
-226 -222
-226 -225
222 225 226
-227 100
-227 153
-100 -153 227
-228 87
-228 227
-87 -227 228
-229 195
-229 -220
-195 220 229
-230 21
-230 -229
-21 229 230
-231 -228
-231 230
228 -230 231
-232 -228
-232 -231
228 231 232
-233 108
-233 160
-108 -160 233
-234 88
-234 233
-88 -233 234
-235 197
-235 -220
-197 220 235
-236 22
-236 -235
-22 235 236
-237 -234
-237 236
234 -236 237
-238 -234
-238 -237
234 237 238
-239 116
-239 167
-116 -167 239
-240 89
-240 239
-89 -239 240
-241 199
-241 -220
-199 220 241
-242 23
-242 -241
-23 241 242
-243 -240
-243 242
240 -242 243
-244 -240
-244 -243
240 243 244
-245 124
-245 174
-124 -174 245
-246 90
-246 245
-90 -245 246
-247 201
-247 -220
-201 220 247
-248 24
-248 -247
-24 247 248
-249 -246
-249 248
246 -248 249
-250 -246
-250 -249
246 249 250
-251 132
-251 181
-132 -181 251
-252 91
-252 251
-91 -251 252
-253 203
-253 -220
-203 220 253
-254 25
-254 -253
-25 253 254
-255 -252
-255 254
252 -254 255
-256 -252
-256 -255
252 255 256
-257 -20
-257 -21
20 21 257
-258 -22
-258 -23
22 23 258
-259 -24
-259 -25
24 25 259
-260 257
-260 258
-257 -258 260
-261 259
-261 260
-259 -260 261
-262 -50
-262 -51
50 51 262
-263 52
-263 262
-52 -262 263
-264 -27
-264 -95
27 95 264
-265 28
-265 95
-28 -95 265
-266 -28
-266 -264
28 264 266
-267 -265
-267 -266
265 266 267
-268 -7
-268 26
7 -26 268
-269 26
-269 -268
-26 268 269
-270 27
-270 -269
-27 269 270
-271 7
-271 -26
-7 26 271
-272 -27
-272 271
27 -271 272
-273 -145
-273 -272
145 272 273
-274 28
-274 270
-28 -270 274
-275 -28
-275 -273
28 273 275
-276 -274
-276 -275
274 275 276
-277 29
-277 -267
-29 267 277
-278 -29
-278 -276
29 276 278
-279 -277
-279 -278
277 278 279
-280 86
-280 -279
-86 279 280
-281 26
-281 -86
-26 86 281
-282 -280
-282 -281
280 281 282
-283 26
-283 261
-26 -261 283
-284 -27
-284 283
27 -283 284
-285 -145
-285 -284
145 284 285
-286 28
-286 92
-28 -92 286
-287 -28
-287 -285
28 285 287
-288 -286
-288 -287
286 287 288
-289 27
-289 -270
-27 270 289
-290 -26
-290 -263
26 263 290
-291 27
-291 290
-27 -290 291
-292 -92
-292 -291
92 291 292
-293 28
-293 -289
-28 289 293
-294 -28
-294 -292
28 292 294
-295 -293
-295 -294
293 294 295
-296 29
-296 -288
-29 288 296
-297 -29
-297 -295
29 295 297
-298 -296
-298 -297
296 297 298
-299 86
-299 -298
-86 298 299
-300 27
-300 -86
-27 86 300
-301 -299
-301 -300
299 300 301
-302 26
-302 -261
-26 261 302
-303 26
-303 27
-26 -27 303
-304 -27
-304 302
27 -302 304
-305 -303
-305 -304
303 304 305
-306 -27
-306 28
27 -28 306
-307 -28
-307 -305
28 305 307
-308 -306
-308 -307
306 307 308
-309 -26
-309 263
26 -263 309
-310 -26
-310 -309
26 309 310
-311 27
-311 -310
-27 310 311
-312 -28
-312 311
28 -311 312
-313 -293
-313 -312
293 312 313
-314 29
-314 -308
-29 308 314
-315 -29
-315 -313
29 313 315
-316 -314
-316 -315
314 315 316
-317 86
-317 -316
-86 316 317
-318 28
-318 -86
-28 86 318
-319 -317
-319 -318
317 318 319
-320 28
-320 -306
-28 306 320
-321 7
-321 26
-7 -26 321
-322 27
-322 321
-27 -321 322
-323 28
-323 322
-28 -322 323
-324 29
-324 -320
-29 320 324
-325 -29
-325 323
29 -323 325
-326 -324
-326 -325
324 325 326
-327 86
-327 -326
-86 326 327
-328 29
-328 -86
-29 86 328
-329 -327
-329 -328
327 328 329
-330 -31
-330 -103
31 103 330
-331 32
-331 103
-32 -103 331
-332 -32
-332 -330
32 330 332
-333 -331
-333 -332
331 332 333
-334 -8
-334 30
8 -30 334
-335 30
-335 -334
-30 334 335
-336 31
-336 -335
-31 335 336
-337 8
-337 -30
-8 30 337
-338 -31
-338 337
31 -337 338
-339 -152
-339 -338
152 338 339
-340 32
-340 336
-32 -336 340
-341 -32
-341 -339
32 339 341
-342 -340
-342 -341
340 341 342
-343 33
-343 -333
-33 333 343
-344 -33
-344 -342
33 342 344
-345 -343
-345 -344
343 344 345
-346 87
-346 -345
-87 345 346
-347 30
-347 -87
-30 87 347
-348 -346
-348 -347
346 347 348
-349 30
-349 261
-30 -261 349
-350 -31
-350 349
31 -349 350
-351 -152
-351 -350
152 350 351
-352 32
-352 100
-32 -100 352
-353 -32
-353 -351
32 351 353
-354 -352
-354 -353
352 353 354
-355 31
-355 -336
-31 336 355
-356 -30
-356 -263
30 263 356
-357 31
-357 356
-31 -356 357
-358 -100
-358 -357
100 357 358
-359 32
-359 -355
-32 355 359
-360 -32
-360 -358
32 358 360
-361 -359
-361 -360
359 360 361
-362 33
-362 -354
-33 354 362
-363 -33
-363 -361
33 361 363
-364 -362
-364 -363
362 363 364
-365 87
-365 -364
-87 364 365
-366 31
-366 -87
-31 87 366
-367 -365
-367 -366
365 366 367
-368 30
-368 -261
-30 261 368
-369 30
-369 31
-30 -31 369
-370 -31
-370 368
31 -368 370
-371 -369
-371 -370
369 370 371
-372 -31
-372 32
31 -32 372
-373 -32
-373 -371
32 371 373
-374 -372
-374 -373
372 373 374
-375 -30
-375 263
30 -263 375
-376 -30
-376 -375
30 375 376
-377 31
-377 -376
-31 376 377
-378 -32
-378 377
32 -377 378
-379 -359
-379 -378
359 378 379
-380 33
-380 -374
-33 374 380
-381 -33
-381 -379
33 379 381
-382 -380
-382 -381
380 381 382
-383 87
-383 -382
-87 382 383
-384 32
-384 -87
-32 87 384
-385 -383
-385 -384
383 384 385
-386 32
-386 -372
-32 372 386
-387 8
-387 30
-8 -30 387
-388 31
-388 387
-31 -387 388
-389 32
-389 388
-32 -388 389
-390 33
-390 -386
-33 386 390
-391 -33
-391 389
33 -389 391
-392 -390
-392 -391
390 391 392
-393 87
-393 -392
-87 392 393
-394 33
-394 -87
-33 87 394
-395 -393
-395 -394
393 394 395
-396 -35
-396 -111
35 111 396
-397 36
-397 111
-36 -111 397
-398 -36
-398 -396
36 396 398
-399 -397
-399 -398
397 398 399
-400 -9
-400 34
9 -34 400
-401 34
-401 -400
-34 400 401
-402 35
-402 -401
-35 401 402
-403 9
-403 -34
-9 34 403
-404 -35
-404 403
35 -403 404
-405 -159
-405 -404
159 404 405
-406 36
-406 402
-36 -402 406
-407 -36
-407 -405
36 405 407
-408 -406
-408 -407
406 407 408
-409 37
-409 -399
-37 399 409
-410 -37
-410 -408
37 408 410
-411 -409
-411 -410
409 410 411
-412 88
-412 -411
-88 411 412
-413 34
-413 -88
-34 88 413
-414 -412
-414 -413
412 413 414
-415 34
-415 261
-34 -261 415
-416 -35
-416 415
35 -415 416
-417 -159
-417 -416
159 416 417
-418 36
-418 108
-36 -108 418
-419 -36
-419 -417
36 417 419
-420 -418
-420 -419
418 419 420
-421 35
-421 -402
-35 402 421
-422 -34
-422 -263
34 263 422
-423 35
-423 422
-35 -422 423
-424 -108
-424 -423
108 423 424
-425 36
-425 -421
-36 421 425
-426 -36
-426 -424
36 424 426
-427 -425
-427 -426
425 426 427
-428 37
-428 -420
-37 420 428
-429 -37
-429 -427
37 427 429
-430 -428
-430 -429
428 429 430
-431 88
-431 -430
-88 430 431
-432 35
-432 -88
-35 88 432
-433 -431
-433 -432
431 432 433
-434 34
-434 -261
-34 261 434
-435 34
-435 35
-34 -35 435
-436 -35
-436 434
35 -434 436
-437 -435
-437 -436
435 436 437
-438 -35
-438 36
35 -36 438
-439 -36
-439 -437
36 437 439
-440 -438
-440 -439
438 439 440
-441 -34
-441 263
34 -263 441
-442 -34
-442 -441
34 441 442
-443 35
-443 -442
-35 442 443
-444 -36
-444 443
36 -443 444
-445 -425
-445 -444
425 444 445
-446 37
-446 -440
-37 440 446
-447 -37
-447 -445
37 445 447
-448 -446
-448 -447
446 447 448
-449 88
-449 -448
-88 448 449
-450 36
-450 -88
-36 88 450
-451 -449
-451 -450
449 450 451
-452 36
-452 -438
-36 438 452
-453 9
-453 34
-9 -34 453
-454 35
-454 453
-35 -453 454
-455 36
-455 454
-36 -454 455
-456 37
-456 -452
-37 452 456
-457 -37
-457 455
37 -455 457
-458 -456
-458 -457
456 457 458
-459 88
-459 -458
-88 458 459
-460 37
-460 -88
-37 88 460
-461 -459
-461 -460
459 460 461
-462 -39
-462 -119
39 119 462
-463 40
-463 119
-40 -119 463
-464 -40
-464 -462
40 462 464
-465 -463
-465 -464
463 464 465
-466 -10
-466 38
10 -38 466
-467 38
-467 -466
-38 466 467
-468 39
-468 -467
-39 467 468
-469 10
-469 -38
-10 38 469
-470 -39
-470 469
39 -469 470
-471 -166
-471 -470
166 470 471
-472 40
-472 468
-40 -468 472
-473 -40
-473 -471
40 471 473
-474 -472
-474 -473
472 473 474
-475 41
-475 -465
-41 465 475
-476 -41
-476 -474
41 474 476
-477 -475
-477 -476
475 476 477
-478 89
-478 -477
-89 477 478
-479 38
-479 -89
-38 89 479
-480 -478
-480 -479
478 479 480
-481 38
-481 261
-38 -261 481
-482 -39
-482 481
39 -481 482
-483 -166
-483 -482
166 482 483
-484 40
-484 116
-40 -116 484
-485 -40
-485 -483
40 483 485
-486 -484
-486 -485
484 485 486
-487 39
-487 -468
-39 468 487
-488 -38
-488 -263
38 263 488
-489 39
-489 488
-39 -488 489
-490 -116
-490 -489
116 489 490
-491 40
-491 -487
-40 487 491
-492 -40
-492 -490
40 490 492
-493 -491
-493 -492
491 492 493
-494 41
-494 -486
-41 486 494
-495 -41
-495 -493
41 493 495
-496 -494
-496 -495
494 495 496
-497 89
-497 -496
-89 496 497
-498 39
-498 -89
-39 89 498
-499 -497
-499 -498
497 498 499
-500 38
-500 -261
-38 261 500
-501 38
-501 39
-38 -39 501
-502 -39
-502 500
39 -500 502
-503 -501
-503 -502
501 502 503
-504 -39
-504 40
39 -40 504
-505 -40
-505 -503
40 503 505
-506 -504
-506 -505
504 505 506
-507 -38
-507 263
38 -263 507
-508 -38
-508 -507
38 507 508
-509 39
-509 -508
-39 508 509
-510 -40
-510 509
40 -509 510
-511 -491
-511 -510
491 510 511
-512 41
-512 -506
-41 506 512
-513 -41
-513 -511
41 511 513
-514 -512
-514 -513
512 513 514
-515 89
-515 -514
-89 514 515
-516 40
-516 -89
-40 89 516
-517 -515
-517 -516
515 516 517
-518 40
-518 -504
-40 504 518
-519 10
-519 38
-10 -38 519
-520 39
-520 519
-39 -519 520
-521 40
-521 520
-40 -520 521
-522 41
-522 -518
-41 518 522
-523 -41
-523 521
41 -521 523
-524 -522
-524 -523
522 523 524
-525 89
-525 -524
-89 524 525
-526 41
-526 -89
-41 89 526
-527 -525
-527 -526
525 526 527
-528 -43
-528 -127
43 127 528
-529 44
-529 127
-44 -127 529
-530 -44
-530 -528
44 528 530
-531 -529
-531 -530
529 530 531
-532 -11
-532 42
11 -42 532
-533 42
-533 -532
-42 532 533
-534 43
-534 -533
-43 533 534
-535 11
-535 -42
-11 42 535
-536 -43
-536 535
43 -535 536
-537 -173
-537 -536
173 536 537
-538 44
-538 534
-44 -534 538
-539 -44
-539 -537
44 537 539
-540 -538
-540 -539
538 539 540
-541 45
-541 -531
-45 531 541
-542 -45
-542 -540
45 540 542
-543 -541
-543 -542
541 542 543
-544 90
-544 -543
-90 543 544
-545 42
-545 -90
-42 90 545
-546 -544
-546 -545
544 545 546
-547 42
-547 261
-42 -261 547
-548 -43
-548 547
43 -547 548
-549 -173
-549 -548
173 548 549
-550 44
-550 124
-44 -124 550
-551 -44
-551 -549
44 549 551
-552 -550
-552 -551
550 551 552
-553 43
-553 -534
-43 534 553
-554 -42
-554 -263
42 263 554
-555 43
-555 554
-43 -554 555
-556 -124
-556 -555
124 555 556
-557 44
-557 -553
-44 553 557
-558 -44
-558 -556
44 556 558
-559 -557
-559 -558
557 558 559
-560 45
-560 -552
-45 552 560
-561 -45
-561 -559
45 559 561
-562 -560
-562 -561
560 561 562
-563 90
-563 -562
-90 562 563
-564 43
-564 -90
-43 90 564
-565 -563
-565 -564
563 564 565
-566 42
-566 -261
-42 261 566
-567 42
-567 43
-42 -43 567
-568 -43
-568 566
43 -566 568
-569 -567
-569 -568
567 568 569
-570 -43
-570 44
43 -44 570
-571 -44
-571 -569
44 569 571
-572 -570
-572 -571
570 571 572
-573 -42
-573 263
42 -263 573
-574 -42
-574 -573
42 573 574
-575 43
-575 -574
-43 574 575
-576 -44
-576 575
44 -575 576
-577 -557
-577 -576
557 576 577
-578 45
-578 -572
-45 572 578
-579 -45
-579 -577
45 577 579
-580 -578
-580 -579
578 579 580
-581 90
-581 -580
-90 580 581
-582 44
-582 -90
-44 90 582
-583 -581
-583 -582
581 582 583
-584 44
-584 -570
-44 570 584
-585 11
-585 42
-11 -42 585
-586 43
-586 585
-43 -585 586
-587 44
-587 586
-44 -586 587
-588 45
-588 -584
-45 584 588
-589 -45
-589 587
45 -587 589
-590 -588
-590 -589
588 589 590
-591 90
-591 -590
-90 590 591
-592 45
-592 -90
-45 90 592
-593 -591
-593 -592
591 592 593
-594 -47
-594 -135
47 135 594
-595 48
-595 135
-48 -135 595
-596 -48
-596 -594
48 594 596
-597 -595
-597 -596
595 596 597
-598 -12
-598 46
12 -46 598
-599 46
-599 -598
-46 598 599
-600 47
-600 -599
-47 599 600
-601 12
-601 -46
-12 46 601
-602 -47
-602 601
47 -601 602
-603 -180
-603 -602
180 602 603
-604 48
-604 600
-48 -600 604
-605 -48
-605 -603
48 603 605
-606 -604
-606 -605
604 605 606
-607 49
-607 -597
-49 597 607
-608 -49
-608 -606
49 606 608
-609 -607
-609 -608
607 608 609
-610 91
-610 -609
-91 609 610
-611 46
-611 -91
-46 91 611
-612 -610
-612 -611
610 611 612
-613 46
-613 261
-46 -261 613
-614 -47
-614 613
47 -613 614
-615 -180
-615 -614
180 614 615
-616 48
-616 132
-48 -132 616
-617 -48
-617 -615
48 615 617
-618 -616
-618 -617
616 617 618
-619 47
-619 -600
-47 600 619
-620 -46
-620 -263
46 263 620
-621 47
-621 620
-47 -620 621
-622 -132
-622 -621
132 621 622
-623 48
-623 -619
-48 619 623
-624 -48
-624 -622
48 622 624
-625 -623
-625 -624
623 624 625
-626 49
-626 -618
-49 618 626
-627 -49
-627 -625
49 625 627
-628 -626
-628 -627
626 627 628
-629 91
-629 -628
-91 628 629
-630 47
-630 -91
-47 91 630
-631 -629
-631 -630
629 630 631
-632 46
-632 -261
-46 261 632
-633 46
-633 47
-46 -47 633
-634 -47
-634 632
47 -632 634
-635 -633
-635 -634
633 634 635
-636 -47
-636 48
47 -48 636
-637 -48
-637 -635
48 635 637
-638 -636
-638 -637
636 637 638
-639 -46
-639 263
46 -263 639
-640 -46
-640 -639
46 639 640
-641 47
-641 -640
-47 640 641
-642 -48
-642 641
48 -641 642
-643 -623
-643 -642
623 642 643
-644 49
-644 -638
-49 638 644
-645 -49
-645 -643
49 643 645
-646 -644
-646 -645
644 645 646
-647 91
-647 -646
-91 646 647
-648 48
-648 -91
-48 91 648
-649 -647
-649 -648
647 648 649
-650 48
-650 -636
-48 636 650
-651 12
-651 46
-12 -46 651
-652 47
-652 651
-47 -651 652
-653 48
-653 652
-48 -652 653
-654 49
-654 -650
-49 650 654
-655 -49
-655 653
49 -653 655
-656 -654
-656 -655
654 655 656
-657 91
-657 -656
-91 656 657
-658 49
-658 -91
-49 91 658
-659 -657
-659 -658
657 658 659
-660 93
-660 303
-93 -303 660
-661 86
-661 660
-86 -660 661
-662 101
-662 369
-101 -369 662
-663 87
-663 662
-87 -662 663
-664 109
-664 435
-109 -435 664
-665 88
-665 664
-88 -664 665
-666 117
-666 501
-117 -501 666
-667 89
-667 666
-89 -666 667
-668 125
-668 567
-125 -567 668
-669 90
-669 668
-90 -668 669
-670 133
-670 633
-133 -633 670
-671 91
-671 670
-91 -670 671
-672 -661
-672 -663
661 663 672
-673 -665
-673 -667
665 667 673
-674 -669
-674 -671
669 671 674
-675 672
-675 673
-672 -673 675
-676 674
-676 675
-674 -675 676
-677 96
-677 145
-96 -145 677
-678 86
-678 677
-86 -677 678
-679 104
-679 152
-104 -152 679
-680 87
-680 679
-87 -679 680
-681 112
-681 159
-112 -159 681
-682 88
-682 681
-88 -681 682
-683 120
-683 166
-120 -166 683
-684 89
-684 683
-89 -683 684
-685 128
-685 173
-128 -173 685
-686 90
-686 685
-90 -685 686
-687 136
-687 180
-136 -180 687
-688 91
-688 687
-91 -687 688
-689 -678
-689 -680
678 680 689
-690 -682
-690 -684
682 684 690
-691 -686
-691 -688
686 688 691
-692 689
-692 690
-689 -690 692
-693 691
-693 692
-691 -692 693
-694 -50
-694 51
50 -51 694
-695 50
-695 -51
-50 51 695
-696 -694
-696 -695
694 695 696
-697 50
-697 51
-50 -51 697
-698 52
-698 -697
-52 697 698
-699 -52
-699 697
52 -697 699
-700 -698
-700 -699
698 699 700
-701 52
-701 697
-52 -697 701
-702 -262
-702 -697
262 697 702
-703 52
-703 -262
-52 262 703
-704 -52
-704 262
52 -262 704
-705 -703
-705 -704
703 704 705
-706 -50
-706 -693
50 693 706
-707 50
-707 693
-50 -693 707
-708 -706
-708 -707
706 707 708
-709 -50
-709 -676
50 676 709
-710 676
-710 -708
-676 708 710
-711 -709
-711 -710
709 710 711
-712 -693
-712 -702
693 702 712
-713 51
-713 693
-51 -693 713
-714 -712
-714 -713
712 713 714
-715 -676
-715 -696
676 696 715
-716 676
-716 -714
-676 714 716
-717 -715
-717 -716
715 716 717
-718 -693
-718 -705
693 705 718
-719 52
-719 693
-52 -693 719
-720 -718
-720 -719
718 719 720
-721 -676
-721 -700
676 700 721
-722 676
-722 -720
-676 720 722
-723 -721
-723 -722
721 722 723
-724 146
-724 303
-146 -303 724
-725 -20
-725 724
20 -724 725
-726 153
-726 369
-153 -369 726
-727 -21
-727 726
21 -726 727
-728 160
-728 435
-160 -435 728
-729 -22
-729 728
22 -728 729
-730 167
-730 501
-167 -501 730
-731 -23
-731 730
23 -730 731
-732 174
-732 567
-174 -567 732
-733 -24
-733 732
24 -732 733
-734 181
-734 633
-181 -633 734
-735 -25
-735 734
25 -734 735
-736 725
-736 -727
-725 727 736
-737 -725
-737 727
725 -727 737
-738 -736
-738 -737
736 737 738
-739 725
-739 727
-725 -727 739
-740 -729
-740 -738
729 738 740
-741 729
-741 738
-729 -738 741
-742 -740
-742 -741
740 741 742
-743 729
-743 -738
-729 738 743
-744 739
-744 -743
-739 743 744
-745 -739
-745 743
739 -743 745
-746 -744
-746 -745
744 745 746
-747 739
-747 743
-739 -743 747
-748 -731
-748 -742
731 742 748
-749 731
-749 742
-731 -742 749
-750 -748
-750 -749
748 749 750
-751 731
-751 -742
-731 742 751
-752 -747
-752 -750
747 750 752
-753 747
-753 750
-747 -750 753
-754 -752
-754 -753
752 753 754
-755 747
-755 -750
-747 750 755
-756 -751
-756 -755
751 755 756
-757 -746
-757 756
746 -756 757
-758 746
-758 -756
-746 756 758
-759 -757
-759 -758
757 758 759
-760 -746
-760 -756
746 756 760
-761 -733
-761 -754
733 754 761
-762 733
-762 754
-733 -754 762
-763 -761
-763 -762
761 762 763
-764 733
-764 -754
-733 754 764
-765 -759
-765 -764
759 764 765
-766 759
-766 764
-759 -764 766
-767 -765
-767 -766
765 766 767
-768 -759
-768 764
759 -764 768
-769 760
-769 -768
-760 768 769
-770 -760
-770 768
760 -768 770
-771 -769
-771 -770
769 770 771
-772 760
-772 768
-760 -768 772
-773 -735
-773 -763
735 763 773
-774 735
-774 763
-735 -763 774
-775 -773
-775 -774
773 774 775
-776 735
-776 -763
-735 763 776
-777 -772
-777 -775
772 775 777
-778 772
-778 775
-772 -775 778
-779 -777
-779 -778
777 778 779
-780 772
-780 -775
-772 775 780
-781 -776
-781 -780
776 780 781
-782 -767
-782 781
767 -781 782
-783 767
-783 -781
-767 781 783
-784 -782
-784 -783
782 783 784
-785 -767
-785 -781
767 781 785
-786 -771
-786 -785
771 785 786
-787 771
-787 785
-771 -785 787
-788 -786
-788 -787
786 787 788
-789 -771
-789 785
771 -785 789
-790 -779
-790 784
779 -784 790
-791 784
-791 -790
-784 790 791
-792 -788
-792 -791
788 791 792
-793 -261
-793 -263
261 263 793
-794 -676
-794 701
676 -701 794
-795 -693
-795 704
693 -704 795
-796 -792
-796 -794
792 794 796
-797 -793
-797 -795
793 795 797
-798 796
-798 797
-796 -797 798
-798
